SECTION Graph
Nodes 670
Edges 1316
E 1 12 77
E 1 532 1
E 1 535 2
E 1 542 6
E 2 532 6
E 2 542 1
E 3 535 6
E 3 542 2
E 3 606 120
E 4 564 2
E 4 566 1
E 4 567 1
E 4 585 20
E 5 7 1
E 5 581 1
E 5 594 20
E 5 605 77
E 6 8 1
E 6 566 1
E 6 567 1
E 6 574 6
E 7 9 1
E 7 580 1
E 7 604 77
E 8 435 116
E 8 565 1
E 8 573 6
E 9 455 116
E 9 579 1
E 9 603 77
E 10 11 1
E 10 22 1
E 10 354 52
E 10 427 2
E 11 23 1
E 11 429 2
E 11 430 2
E 12 449 1
E 12 450 1
E 12 455 2
E 13 20 52
E 13 431 6
E 13 440 1
E 13 448 5
E 14 435 6
E 14 440 2
E 14 453 5
E 14 573 116
E 15 27 5
E 15 585 24
E 15 598 1
E 15 599 1
E 16 600 11
E 16 602 1
E 17 352 3
E 17 356 1
E 17 360 1
E 17 363 6
E 18 363 5
E 18 371 1
E 19 356 6
E 19 363 1
E 20 360 6
E 20 363 1
E 20 371 5
E 21 46 5
E 21 404 1
E 21 408 1
E 21 409 2
E 22 23 1
E 22 351 52
E 22 419 2
E 23 421 2
E 23 426 2
E 24 37 52
E 24 406 5
E 24 414 1
E 24 416 6
E 25 410 5
E 25 414 2
E 25 422 6
E 25 550 116
E 26 590 1
E 26 591 1
E 26 596 11
E 27 583 24
E 27 595 1
E 27 597 1
E 28 30 1
E 28 39 5
E 28 546 1
E 28 569 20
E 29 557 1
E 29 558 1
E 29 562 2
E 29 583 20
E 30 32 1
E 30 41 5
E 30 545 1
E 31 33 1
E 31 551 6
E 31 557 1
E 31 558 1
E 32 43 5
E 32 409 116
E 32 544 1
E 33 422 116
E 33 550 6
E 33 556 1
E 34 332 1
E 34 333 1
E 34 337 1
E 34 339 5
E 35 339 6
E 35 342 1
E 35 345 1
E 35 349 3
E 36 333 5
E 36 339 1
E 36 342 6
E 37 337 5
E 37 339 1
E 37 345 6
E 38 49 44
E 38 524 2
E 38 526 1
E 38 527 1
E 39 41 1
E 39 541 1
E 39 586 44
E 40 42 1
E 40 526 1
E 40 527 1
E 40 533 6
E 41 43 1
E 41 540 1
E 42 384 116
E 42 525 1
E 42 531 6
E 43 402 116
E 43 539 1
E 44 45 1
E 44 56 1
E 44 305 52
E 44 377 2
E 45 57 1
E 45 379 2
E 45 380 2
E 46 398 1
E 46 399 1
E 46 402 2
E 47 54 52
E 47 381 6
E 47 389 1
E 47 397 5
E 48 384 6
E 48 389 2
E 48 401 5
E 48 531 116
E 49 61 5
E 49 576 1
E 49 577 1
E 50 578 11
E 50 584 1
E 50 588 1
E 51 303 3
E 51 307 1
E 51 311 1
E 51 314 6
E 52 314 5
E 52 316 1
E 52 321 1
E 52 322 1
E 53 307 6
E 53 314 1
E 53 316 5
E 54 311 6
E 54 314 1
E 54 321 5
E 55 80 5
E 55 353 1
E 55 357 1
E 55 359 2
E 56 57 1
E 56 302 52
E 56 368 2
E 57 370 2
E 57 376 2
E 58 71 52
E 58 355 5
E 58 362 1
E 58 365 6
E 59 361 5
E 59 362 2
E 59 372 6
E 59 510 116
E 60 554 1
E 60 555 1
E 60 570 11
E 61 63 44
E 61 568 1
E 61 572 1
E 62 64 1
E 62 73 5
E 62 506 1
E 62 553 44
E 63 517 1
E 63 518 1
E 63 522 2
E 64 66 1
E 64 75 5
E 64 505 1
E 65 67 1
E 65 511 6
E 65 517 1
E 65 518 1
E 66 77 5
E 66 359 116
E 66 504 1
E 67 372 116
E 67 510 6
E 67 516 1
E 68 283 1
E 68 284 1
E 68 288 1
E 68 290 5
E 69 290 6
E 69 293 1
E 69 296 1
E 69 300 3
E 70 284 5
E 70 290 1
E 70 293 6
E 71 288 5
E 71 290 1
E 71 296 6
E 72 83 44
E 72 487 2
E 72 489 1
E 72 490 1
E 73 75 1
E 73 502 1
E 73 548 44
E 74 76 1
E 74 489 1
E 74 490 1
E 74 495 6
E 75 77 1
E 75 501 1
E 76 338 116
E 76 488 1
E 76 494 6
E 77 348 116
E 77 500 1
E 78 79 1
E 78 90 1
E 78 256 52
E 78 327 2
E 79 91 1
E 79 329 2
E 79 330 2
E 80 343 1
E 80 344 1
E 80 348 2
E 81 88 52
E 81 331 6
E 81 340 1
E 81 341 5
E 82 338 6
E 82 340 2
E 82 346 5
E 82 494 116
E 83 95 5
E 83 536 1
E 83 537 1
E 84 538 11
E 84 547 1
E 84 549 1
E 85 254 3
E 85 258 1
E 85 262 1
E 85 265 6
E 86 265 5
E 86 267 1
E 86 272 1
E 86 273 1
E 87 258 6
E 87 265 1
E 87 267 5
E 88 262 6
E 88 265 1
E 88 272 5
E 89 114 5
E 89 304 1
E 89 308 1
E 89 310 2
E 90 91 1
E 90 253 52
E 90 318 2
E 91 320 2
E 91 326 2
E 92 105 52
E 92 306 5
E 92 313 1
E 92 315 6
E 93 312 5
E 93 313 2
E 93 323 6
E 93 473 116
E 94 514 1
E 94 515 1
E 94 529 11
E 95 97 44
E 95 528 1
E 95 530 1
E 96 98 1
E 96 107 5
E 96 469 1
E 96 513 44
E 97 480 1
E 97 481 1
E 97 485 2
E 98 100 1
E 98 109 5
E 98 468 1
E 99 101 1
E 99 474 6
E 99 480 1
E 99 481 1
E 100 111 5
E 100 310 116
E 100 467 1
E 101 323 116
E 101 473 6
E 101 479 1
E 102 234 1
E 102 235 1
E 102 239 1
E 102 241 5
E 103 241 6
E 103 244 1
E 103 247 1
E 103 251 3
E 104 235 5
E 104 241 1
E 104 244 6
E 105 239 5
E 105 241 1
E 105 247 6
E 106 117 44
E 106 445 2
E 106 447 1
E 106 451 1
E 107 109 1
E 107 465 1
E 107 508 44
E 108 110 1
E 108 447 1
E 108 451 1
E 108 458 6
E 109 111 1
E 109 464 1
E 110 289 116
E 110 446 1
E 110 457 6
E 111 299 116
E 111 463 1
E 112 113 1
E 112 124 1
E 112 207 52
E 112 278 2
E 113 125 1
E 113 280 2
E 113 281 2
E 114 294 1
E 114 295 1
E 114 299 2
E 115 122 52
E 115 282 6
E 115 291 1
E 115 292 5
E 116 289 6
E 116 291 2
E 116 297 5
E 116 457 116
E 117 129 5
E 117 497 1
E 117 498 1
E 118 499 11
E 118 507 1
E 118 509 1
E 119 206 3
E 119 209 1
E 119 213 1
E 119 216 6
E 120 216 5
E 120 218 1
E 120 223 1
E 120 224 1
E 121 209 6
E 121 216 1
E 121 218 5
E 122 213 6
E 122 216 1
E 122 223 5
E 123 148 5
E 123 255 1
E 123 259 1
E 123 261 2
E 124 125 1
E 124 205 52
E 124 269 2
E 125 271 2
E 125 277 2
E 126 139 52
E 126 257 5
E 126 264 1
E 126 266 6
E 127 263 5
E 127 264 2
E 127 274 6
E 127 424 116
E 128 477 1
E 128 478 1
E 128 492 11
E 129 131 44
E 129 491 1
E 129 493 1
E 130 132 1
E 130 141 5
E 130 420 1
E 130 476 44
E 131 437 1
E 131 438 1
E 131 443 2
E 132 134 1
E 132 143 5
E 132 417 1
E 133 135 1
E 133 425 6
E 133 437 1
E 133 438 1
E 134 145 5
E 134 261 116
E 134 415 1
E 135 274 116
E 135 424 6
E 135 436 1
E 136 195 1
E 136 196 1
E 136 198 1
E 136 199 5
E 137 199 6
E 137 200 1
E 137 201 1
E 137 203 3
E 138 196 5
E 138 199 1
E 138 200 6
E 139 198 5
E 139 199 1
E 139 201 6
E 140 151 44
E 140 394 2
E 140 396 1
E 140 400 1
E 141 143 1
E 141 413 1
E 141 471 44
E 142 144 1
E 142 396 1
E 142 400 1
E 142 405 6
E 143 145 1
E 143 412 1
E 144 240 116
E 144 395 1
E 144 403 6
E 145 250 116
E 145 411 1
E 146 147 1
E 146 158 1
E 146 184 52
E 146 229 2
E 147 159 1
E 147 231 2
E 147 232 2
E 148 245 1
E 148 246 1
E 148 250 2
E 149 156 52
E 149 233 6
E 149 242 1
E 149 243 5
E 150 240 6
E 150 242 2
E 150 248 5
E 150 403 116
E 151 163 5
E 151 460 1
E 151 461 1
E 152 462 11
E 152 470 1
E 152 472 1
E 153 183 3
E 153 185 1
E 153 187 1
E 153 188 6
E 154 188 5
E 154 189 1
E 154 191 1
E 154 192 1
E 155 185 6
E 155 188 1
E 155 189 5
E 156 187 6
E 156 188 1
E 156 191 5
E 157 210 1
E 157 212 2
E 158 159 1
E 158 182 52
E 158 220 2
E 159 222 2
E 159 228 2
E 160 173 52
E 160 208 5
E 160 215 1
E 160 217 6
E 161 214 5
E 161 215 2
E 161 225 6
E 161 374 116
E 162 434 1
E 162 454 11
E 163 165 44
E 163 452 1
E 163 456 1
E 164 166 1
E 164 369 1
E 165 386 1
E 165 387 1
E 165 392 2
E 166 168 1
E 166 366 1
E 167 169 1
E 167 375 6
E 167 386 1
E 167 387 1
E 168 212 116
E 168 364 1
E 169 225 116
E 169 374 6
E 169 385 1
E 170 175 1
E 170 176 5
E 171 176 6
E 171 177 1
E 171 178 1
E 171 180 3
E 172 176 1
E 172 177 6
E 173 175 5
E 173 176 1
E 173 178 6
E 174 594 79
E 174 608 20
E 175 208 52
E 177 179 3
E 178 182 3
E 178 217 52
E 179 180 1
E 179 181 1
E 180 182 1
E 180 183 1
E 181 183 1
E 181 185 3
E 182 184 1
E 183 184 1
E 184 186 2
E 186 187 1
E 186 229 52
E 187 233 52
E 189 190 1
E 190 192 1
E 190 194 5
E 191 193 1
E 191 243 52
E 192 193 1
E 192 195 5
E 193 197 5
E 193 246 52
E 194 195 1
E 194 196 1
E 195 197 1
E 197 198 1
E 197 255 52
E 198 257 52
E 200 202 3
E 201 205 3
E 201 266 52
E 202 203 1
E 202 204 1
E 203 205 1
E 203 206 1
E 204 206 1
E 204 209 3
E 205 207 1
E 206 207 1
E 207 211 2
E 208 210 1
E 210 214 2
E 210 215 5
E 211 213 1
E 211 278 52
E 212 214 1
E 213 282 52
E 214 364 116
E 215 219 6
E 217 219 1
E 217 220 1
E 218 221 1
E 219 222 1
E 219 225 2
E 220 222 1
E 221 224 1
E 221 230 5
E 222 227 2
E 223 226 1
E 223 292 52
E 224 226 1
E 224 234 5
E 225 227 1
E 226 237 5
E 226 295 52
E 227 228 2
E 227 385 116
E 228 231 1
E 228 388 116
E 229 232 1
E 229 233 1
E 230 234 1
E 230 235 1
E 231 238 2
E 231 391 116
E 232 236 1
E 232 238 2
E 233 236 1
E 234 237 1
E 236 240 2
E 236 242 6
E 237 239 1
E 237 304 52
E 238 240 1
E 238 395 116
E 239 306 52
E 242 245 5
E 243 245 1
E 243 246 1
E 244 249 3
E 245 248 2
E 246 255 5
E 247 253 3
E 247 315 52
E 248 250 1
E 248 411 116
E 249 251 1
E 249 252 1
E 250 261 5
E 251 253 1
E 251 254 1
E 252 254 1
E 252 258 3
E 253 256 1
E 254 256 1
E 255 257 1
E 256 260 2
E 257 259 1
E 259 263 2
E 259 264 5
E 260 262 1
E 260 327 52
E 261 263 1
E 262 331 52
E 263 415 116
E 264 268 6
E 266 268 1
E 266 269 1
E 267 270 1
E 268 271 1
E 268 274 2
E 269 271 1
E 270 273 1
E 270 279 5
E 271 276 2
E 272 275 1
E 272 341 52
E 273 275 1
E 273 283 5
E 274 276 1
E 275 286 5
E 275 344 52
E 276 277 2
E 276 436 116
E 277 280 1
E 277 439 116
E 278 281 1
E 278 282 1
E 279 283 1
E 279 284 1
E 280 287 2
E 280 442 116
E 281 285 1
E 281 287 2
E 282 285 1
E 283 286 1
E 285 289 2
E 285 291 6
E 286 288 1
E 286 353 52
E 287 289 1
E 287 446 116
E 288 355 52
E 291 294 5
E 292 294 1
E 292 295 1
E 293 298 3
E 294 297 2
E 295 304 5
E 296 302 3
E 296 365 52
E 297 299 1
E 297 463 116
E 298 300 1
E 298 301 1
E 299 310 5
E 300 302 1
E 300 303 1
E 301 303 1
E 301 307 3
E 302 305 1
E 303 305 1
E 304 306 1
E 305 309 2
E 306 308 1
E 308 312 2
E 308 313 5
E 309 311 1
E 309 377 52
E 310 312 1
E 311 381 52
E 312 467 116
E 313 317 6
E 315 317 1
E 315 318 1
E 316 319 1
E 317 320 1
E 317 323 2
E 318 320 1
E 319 322 1
E 319 328 5
E 320 325 2
E 321 324 1
E 321 397 52
E 322 324 1
E 322 332 5
E 323 325 1
E 324 335 5
E 324 399 52
E 325 326 2
E 325 479 116
E 326 329 1
E 326 482 116
E 327 330 1
E 327 331 1
E 328 332 1
E 328 333 1
E 329 336 2
E 329 484 116
E 330 334 1
E 330 336 2
E 331 334 1
E 332 335 1
E 334 338 2
E 334 340 6
E 335 337 1
E 335 404 52
E 336 338 1
E 336 488 116
E 337 406 52
E 340 343 5
E 341 343 1
E 341 344 1
E 342 347 3
E 343 346 2
E 344 353 5
E 345 351 3
E 345 416 52
E 346 348 1
E 346 500 116
E 347 349 1
E 347 350 1
E 348 359 5
E 349 351 1
E 349 352 1
E 350 352 1
E 350 356 3
E 351 354 1
E 352 354 1
E 353 355 1
E 354 358 2
E 355 357 1
E 357 361 2
E 357 362 5
E 358 360 1
E 358 427 52
E 359 361 1
E 360 431 52
E 361 504 116
E 362 367 6
E 364 366 1
E 364 374 5
E 365 367 1
E 365 368 1
E 366 369 1
E 366 375 5
E 367 370 1
E 367 372 2
E 368 370 1
E 369 378 5
E 369 434 44
E 370 373 2
E 371 448 52
E 372 373 1
E 373 376 2
E 373 516 116
E 374 375 1
E 375 378 1
E 376 379 1
E 376 519 116
E 377 380 1
E 377 381 1
E 378 386 6
E 379 383 2
E 379 521 116
E 380 382 1
E 380 383 2
E 381 382 1
E 382 384 2
E 382 389 6
E 383 384 1
E 383 525 116
E 385 387 1
E 385 388 2
E 386 452 44
E 387 390 2
E 388 390 1
E 388 391 1
E 389 398 5
E 390 392 1
E 390 393 1
E 391 393 1
E 391 395 2
E 392 394 1
E 393 394 1
E 393 396 2
E 395 396 1
E 397 398 1
E 397 399 1
E 398 401 2
E 399 404 5
E 400 407 6
E 400 461 44
E 401 402 1
E 401 539 116
E 402 409 5
E 403 405 1
E 403 411 5
E 404 406 1
E 405 407 1
E 405 412 5
E 406 408 1
E 407 413 5
E 407 466 44
E 408 410 2
E 408 414 5
E 409 410 1
E 410 544 116
E 411 412 1
E 412 413 1
E 413 470 44
E 414 418 6
E 415 417 1
E 415 424 5
E 416 418 1
E 416 419 1
E 417 420 1
E 417 425 5
E 418 421 1
E 418 422 2
E 419 421 1
E 420 428 5
E 420 478 44
E 421 423 2
E 422 423 1
E 423 426 2
E 423 556 116
E 424 425 1
E 425 428 1
E 426 429 1
E 426 559 116
E 427 430 1
E 427 431 1
E 428 437 6
E 429 433 2
E 429 561 116
E 430 432 1
E 430 433 2
E 431 432 1
E 432 435 2
E 432 440 6
E 433 435 1
E 433 565 116
E 434 452 11
E 436 438 1
E 436 439 2
E 437 491 44
E 438 441 2
E 439 441 1
E 439 442 1
E 440 449 5
E 441 443 1
E 441 444 1
E 442 444 1
E 442 446 2
E 443 445 1
E 444 445 1
E 444 447 2
E 446 447 1
E 448 449 1
E 448 450 1
E 449 453 2
E 450 532 77
E 451 459 6
E 451 498 44
E 452 454 1
E 453 455 1
E 453 579 116
E 454 456 1
E 455 535 77
E 456 460 5
E 457 458 1
E 457 463 5
E 458 459 1
E 458 464 5
E 459 465 5
E 459 503 44
E 460 462 1
E 461 462 1
E 461 466 6
E 463 464 1
E 464 465 1
E 465 507 44
E 466 470 5
E 467 468 1
E 467 473 5
E 468 469 1
E 468 474 5
E 469 475 5
E 469 515 44
E 470 471 1
E 471 472 1
E 471 476 5
E 472 477 5
E 473 474 1
E 474 475 1
E 475 480 6
E 476 477 1
E 476 478 1
E 478 491 11
E 479 481 1
E 479 482 2
E 480 528 44
E 481 483 2
E 482 483 1
E 482 484 1
E 483 485 1
E 483 486 1
E 484 486 1
E 484 488 2
E 485 487 1
E 486 487 1
E 486 489 2
E 488 489 1
E 490 496 6
E 490 537 44
E 491 492 1
E 492 493 1
E 493 497 5
E 494 495 1
E 494 500 5
E 495 496 1
E 495 501 5
E 496 502 5
E 496 543 44
E 497 499 1
E 498 499 1
E 498 503 6
E 500 501 1
E 501 502 1
E 502 547 44
E 503 507 5
E 504 505 1
E 504 510 5
E 505 506 1
E 505 511 5
E 506 512 5
E 506 555 44
E 507 508 1
E 508 509 1
E 508 513 5
E 509 514 5
E 510 511 1
E 511 512 1
E 512 517 6
E 513 514 1
E 513 515 1
E 515 528 11
E 516 518 1
E 516 519 2
E 517 568 44
E 518 520 2
E 519 520 1
E 519 521 1
E 520 522 1
E 520 523 1
E 521 523 1
E 521 525 2
E 522 524 1
E 523 524 1
E 523 526 2
E 525 526 1
E 527 534 6
E 527 577 44
E 528 529 1
E 529 530 1
E 530 536 5
E 531 533 1
E 531 539 5
E 533 534 1
E 533 540 5
E 534 541 5
E 534 582 44
E 535 603 116
E 536 538 1
E 537 538 1
E 537 543 6
E 539 540 1
E 540 541 1
E 541 584 44
E 543 547 5
E 544 545 1
E 544 550 5
E 545 546 1
E 545 551 5
E 546 552 5
E 546 571 20
E 547 548 1
E 548 549 1
E 548 553 5
E 549 554 5
E 550 551 1
E 551 552 1
E 552 557 6
E 553 554 1
E 553 555 1
E 555 568 11
E 556 558 1
E 556 559 2
E 557 595 44
E 558 560 2
E 559 560 1
E 559 561 1
E 560 562 1
E 560 563 1
E 561 563 1
E 561 565 2
E 562 564 1
E 563 564 1
E 563 566 2
E 565 566 1
E 567 575 6
E 567 587 20
E 568 570 1
E 569 571 1
E 569 589 24
E 570 572 1
E 571 583 12
E 571 591 24
E 572 576 5
E 573 574 1
E 573 579 5
E 574 575 1
E 574 580 5
E 575 581 5
E 575 592 20
E 576 578 1
E 577 578 1
E 577 582 6
E 579 580 1
E 580 581 1
E 581 593 20
E 582 584 5
E 583 585 5
E 584 586 1
E 585 587 1
E 586 588 1
E 586 589 5
E 587 592 6
E 587 599 24
E 588 590 5
E 589 590 1
E 589 591 1
E 591 595 11
E 592 593 5
E 592 601 24
E 593 594 1
E 593 602 24
E 595 596 1
E 596 597 1
E 597 598 5
E 598 600 1
E 599 600 1
E 599 601 6
E 601 602 5
E 603 604 1
E 603 606 2
E 604 605 1
E 604 607 2
E 605 608 2
E 606 607 1
E 607 608 1
E 1 609 100000
E 2 609 100000
E 3 609 100000
E 4 610 100000
E 5 610 100000
E 6 611 100000
E 7 611 100000
E 8 612 100000
E 9 612 100000
E 10 613 100000
E 11 613 100000
E 12 613 100000
E 13 613 100000
E 14 613 100000
E 15 614 100000
E 16 614 100000
E 17 615 100000
E 18 615 100000
E 19 615 100000
E 20 615 100000
E 21 616 100000
E 22 616 100000
E 23 616 100000
E 24 616 100000
E 25 616 100000
E 26 617 100000
E 27 617 100000
E 28 618 100000
E 29 618 100000
E 30 619 100000
E 31 619 100000
E 32 620 100000
E 33 620 100000
E 34 621 100000
E 35 621 100000
E 36 621 100000
E 37 621 100000
E 38 622 100000
E 39 622 100000
E 40 623 100000
E 41 623 100000
E 42 624 100000
E 43 624 100000
E 44 625 100000
E 45 625 100000
E 46 625 100000
E 47 625 100000
E 48 625 100000
E 49 626 100000
E 50 626 100000
E 51 627 100000
E 52 627 100000
E 53 627 100000
E 54 627 100000
E 55 628 100000
E 56 628 100000
E 57 628 100000
E 58 628 100000
E 59 628 100000
E 60 629 100000
E 61 629 100000
E 62 630 100000
E 63 630 100000
E 64 631 100000
E 65 631 100000
E 66 632 100000
E 67 632 100000
E 68 633 100000
E 69 633 100000
E 70 633 100000
E 71 633 100000
E 72 634 100000
E 73 634 100000
E 74 635 100000
E 75 635 100000
E 76 636 100000
E 77 636 100000
E 78 637 100000
E 79 637 100000
E 80 637 100000
E 81 637 100000
E 82 637 100000
E 83 638 100000
E 84 638 100000
E 85 639 100000
E 86 639 100000
E 87 639 100000
E 88 639 100000
E 89 640 100000
E 90 640 100000
E 91 640 100000
E 92 640 100000
E 93 640 100000
E 94 641 100000
E 95 641 100000
E 96 642 100000
E 97 642 100000
E 98 643 100000
E 99 643 100000
E 100 644 100000
E 101 644 100000
E 102 645 100000
E 103 645 100000
E 104 645 100000
E 105 645 100000
E 106 646 100000
E 107 646 100000
E 108 647 100000
E 109 647 100000
E 110 648 100000
E 111 648 100000
E 112 649 100000
E 113 649 100000
E 114 649 100000
E 115 649 100000
E 116 649 100000
E 117 650 100000
E 118 650 100000
E 119 651 100000
E 120 651 100000
E 121 651 100000
E 122 651 100000
E 123 652 100000
E 124 652 100000
E 125 652 100000
E 126 652 100000
E 127 652 100000
E 128 653 100000
E 129 653 100000
E 130 654 100000
E 131 654 100000
E 132 655 100000
E 133 655 100000
E 134 656 100000
E 135 656 100000
E 136 657 100000
E 137 657 100000
E 138 657 100000
E 139 657 100000
E 140 658 100000
E 141 658 100000
E 142 659 100000
E 143 659 100000
E 144 660 100000
E 145 660 100000
E 146 661 100000
E 147 661 100000
E 148 661 100000
E 149 661 100000
E 150 661 100000
E 151 662 100000
E 152 662 100000
E 153 663 100000
E 154 663 100000
E 155 663 100000
E 156 663 100000
E 157 664 100000
E 158 664 100000
E 159 664 100000
E 160 664 100000
E 161 664 100000
E 162 665 100000
E 163 665 100000
E 164 666 100000
E 165 666 100000
E 166 667 100000
E 167 667 100000
E 168 668 100000
E 169 668 100000
E 170 669 100000
E 171 669 100000
E 172 669 100000
E 173 669 100000
E 174 670 100000
END

SECTION Terminals
Terminals 62
T 609
T 610
T 611
T 612
T 613
T 614
T 615
T 616
T 617
T 618
T 619
T 620
T 621
T 622
T 623
T 624
T 625
T 626
T 627
T 628
T 629
T 630
T 631
T 632
T 633
T 634
T 635
T 636
T 637
T 638
T 639
T 640
T 641
T 642
T 643
T 644
T 645
T 646
T 647
T 648
T 649
T 650
T 651
T 652
T 653
T 654
T 655
T 656
T 657
T 658
T 659
T 660
T 661
T 662
T 663
T 664
T 665
T 666
T 667
T 668
T 669
T 670
END

EOF
